
Gurobi 11.0.1 (win64) logging started Sat Mar 23 22:34:06 2024

Set parameter LogFile to value "C:\Projetos\Job_Rotation_Algorithms\Outputs\GurobiLogs\gurobi_log-output-47_hes-c26-BorbaRittModel-NoExtraConstraint-2.log"
Gurobi Optimizer version 11.0.1 build v11.0.1rc0 (win64 - Windows 10.0 (19045.2))

CPU model: 11th Gen Intel(R) Core(TM) i7-1165G7 @ 2.80GHz, instruction set [SSE2|AVX|AVX2|AVX512]
Thread count: 4 physical cores, 8 logical processors, using up to 1 threads

WLS license 901039 - registered to Bitka Analytics
Optimize a model with 3528 rows, 617 columns and 11053 nonzeros
Model fingerprint: 0x3cfa1cb6
Variable types: 2 continuous, 615 integer (615 binary)
Coefficient statistics:
  Matrix range     [1e+00, 1e+02]
  Objective range  [1e+00, 1e+00]
  Bounds range     [1e+00, 5e+01]
  RHS range        [1e+00, 5e+01]
Presolve removed 3337 rows and 399 columns
Presolve time: 0.03s
Presolved: 191 rows, 218 columns, 709 nonzeros
Variable types: 0 continuous, 218 integer (217 binary)
Found heuristic solution: objective 42.0000000

Root relaxation: objective 4.392308e+01, 201 iterations, 0.00 seconds (0.00 work units)

    Nodes    |    Current Node    |     Objective Bounds      |     Work
 Expl Unexpl |  Obj  Depth IntInf | Incumbent    BestBd   Gap | It/Node Time

     0     0   43.92308    0    8   42.00000   43.92308  4.58%     -    0s
H    0     0                      43.0000000   43.92308  2.15%     -    0s
     0     0   43.92308    0    8   43.00000   43.92308  2.15%     -    0s

Explored 1 nodes (360 simplex iterations) in 0.05 seconds (0.04 work units)
Thread count was 1 (of 8 available processors)

Solution count 2: 43 42 

Optimal solution found (tolerance 1.00e-03)
Best objective 4.300000000000e+01, best bound 4.300000000000e+01, gap 0.0000%
